
******************************************************************************
This program contains Ipopt, a library for large-scale nonlinear optimization.
 Ipopt is released as open source code under the Eclipse Public License (EPL).
         For more information visit http://projects.coin-or.org/Ipopt

This version of Ipopt was compiled from source code available at
    https://github.com/IDAES/Ipopt as part of the Institute for the Design of
    Advanced Energy Systems Process Systems Engineering Framework (IDAES PSE
    Framework) Copyright (c) 2018-2019. See https://github.com/IDAES/idaes-pse.

This version of Ipopt was compiled using HSL, a collection of Fortran codes
    for large-scale scientific computation.  All technical papers, sales and
    publicity material resulting from use of the HSL codes within IPOPT must
    contain the following acknowledgement:
        HSL, a collection of Fortran codes for large-scale scientific
        computation. See http://www.hsl.rl.ac.uk.
******************************************************************************

This is Ipopt version 3.13.2, running with linear solver ma27.

Number of nonzeros in equality constraint Jacobian...:      928
Number of nonzeros in inequality constraint Jacobian.:        0
Number of nonzeros in Lagrangian Hessian.............:      806

Total number of variables............................:      403
                     variables with only lower bounds:      124
                variables with lower and upper bounds:      217
                     variables with only upper bounds:        0
Total number of equality constraints.................:      402
Total number of inequality constraints...............:        0
        inequality constraints with only lower bounds:        0
   inequality constraints with lower and upper bounds:        0
        inequality constraints with only upper bounds:        0

iter    objective    inf_pr   inf_du lg(mu)  ||d||  lg(rg) alpha_du alpha_pr  ls
   0  0.0000000e+00 1.17e+00 5.55e-16  -1.0 0.00e+00    -  0.00e+00 0.00e+00   0
   1  2.0601090e-01 1.02e+00 2.30e+05  -1.0 1.99e+05    -  1.91e-01 1.44e-01h  1
   2  2.4404060e-01 1.00e+00 2.27e+05  -1.0 2.01e+05    -  4.93e-01 1.44e-02h  1
   3  2.0871137e+00 7.64e-01 1.70e+05  -1.0 2.28e+05    -  4.96e-01 2.68e-01h  1
   4  1.9973734e+01 1.99e-01 2.55e+04  -1.0 1.80e+05    -  5.77e-01 9.90e-01h  1
   5  2.3094458e+01 1.92e-02 2.18e+03  -1.0 1.97e+04    -  9.33e-01 9.90e-01h  1
   6  2.3157586e+01 3.73e-04 5.32e+01  -1.0 5.90e+02    -  9.90e-01 9.90e-01h  1
   7  2.3171443e+01 3.25e-05 2.24e+01  -1.0 1.99e+02    -  9.90e-01 9.90e-01h  1
   8  2.3158106e+01 3.28e-05 2.05e+05  -2.5 1.99e+02    -  9.97e-01 9.93e-01h  1
   9  2.3158192e+01 3.18e-05 6.07e+09  -2.5 4.12e+01    -  9.99e-01 3.12e-02f  6
iter    objective    inf_pr   inf_du lg(mu)  ||d||  lg(rg) alpha_du alpha_pr  ls
  10  2.3160875e+01 2.00e-06 3.55e+07  -2.5 3.98e+01    -  1.00e+00 9.97e-01h  1
  11  2.3160880e+01 5.73e-09 6.47e+09  -2.5 7.60e-02    -  1.00e+00 9.97e-01h  1
In iteration 11, 31 Slacks too small, adjusting variable bounds
  12  2.3160880e+01 1.65e-11 2.29e+12  -2.5 2.10e-04    -  1.00e+00 9.97e-01h  1
  13  2.3160880e+01 6.34e-12 4.74e-02  -2.5 5.76e-07    -  1.00e+00 1.00e+00h  1
  14  2.3160875e+01 6.25e-12 2.30e+12  -9.0 4.26e+01    -  1.00e+00 1.93e-03f 10
  15  2.3158027e+01 4.07e-12 9.23e-03  -9.0 4.21e+01    -  1.00e+00 1.00e+00F  1
  16  2.3158027e+01 2.83e-12 7.07e-10  -9.0 2.44e-04    -  1.00e+00 1.00e+00h  1

Number of Iterations....: 16

                                   (scaled)                 (unscaled)
Objective...............:   2.3158027058791856e+01    2.3158027058791856e+01
Dual infeasibility......:   7.0736244345991043e-10    7.0736244345991043e-10
Constraint violation....:   2.8341773372630996e-12    2.8341773372630996e-12
Complementarity.........:   9.0909115909195680e-10    9.0909115909195680e-10
Overall NLP error.......:   2.8341773372630996e-12    9.0909115909195680e-10


Number of objective function evaluations             = 36
Number of objective gradient evaluations             = 17
Number of equality constraint evaluations            = 36
Number of inequality constraint evaluations          = 0
Number of equality constraint Jacobian evaluations   = 17
Number of inequality constraint Jacobian evaluations = 0
Number of Lagrangian Hessian evaluations             = 16
Total CPU secs in IPOPT (w/o function evaluations)   =      0.041
Total CPU secs in NLP function evaluations           =      0.441

EXIT: Optimal Solution Found.
